#Generated by Multiwfn
&GLOBAL
  PROJECT gr9
  PRINT_LEVEL LOW
  RUN_TYPE MD
&END GLOBAL

&FORCE_EVAL
  METHOD Quickstep
  &SUBSYS
    &CELL
      A    30.53908367     0.00000000     0.00000000
      B     0.00000000    28.25879109     0.00000000
      C     0.00000000     0.00000000    13.38742679
      PERIODIC XYZ #Direction(s) of applied PBC (geometry aspect)
    &END CELL
    &COORD
      C          15.71013170   19.99470026    2.29326998
      C          14.48182263   19.37601113    2.67167900
      C          14.48209501   17.98486861    2.99712182
      C          15.72973894   17.26219358    2.55816103
      C          16.99147846   18.00454290    2.91499352
      C          16.95836858   19.37829768    2.49930257
      C          15.74626137   15.99541525    5.16551624
      C          17.10961243   15.49349319    4.68436961
      C          18.21503686   16.14038392    4.10537933
      C          18.16118613   17.44585396    3.44389744
      C          17.21405356   14.10634647    4.94171009
      C          18.44083752   13.40474435    4.96509303
      C          19.60756626   14.09724394    4.57886516
      C          19.49518771   15.44603970    4.13504843
      C          13.29664671   20.13264400    2.81618670
      C          12.13654822   19.54750513    3.31261071
      C          12.14175710   18.17129198    3.72295634
      C          13.35946246   17.38872503    3.60008312
      C          10.94160482   17.61036368    4.22324300
      C          10.89047525   16.21827612    4.49527177
      C          12.07803340   15.47085461    4.36856329
      C          13.34493996   16.00518939    4.07394582
      C          14.57275642   15.24341371    4.39058831
      C          11.89151624   14.01259003    4.33936910
      C          14.14702765   12.66771776    3.72609173
      C          14.81532590   13.88396123    4.36076870
      C          16.01484679   13.36780697    5.00346863
      C          13.70120958   11.71213937    4.86650742
      C          14.76743044   11.34171035    5.64270990
      C          16.03076455   12.03944798    5.43312224
      C          17.26292699   11.37147733    5.66438820
      C          18.47179324   12.02988944    5.33320627
      C          10.91618795   20.31420056    3.45544579
      C           9.77269241   19.76616233    3.97517057
      C           9.74281006   18.39140998    4.36257549
      C           8.57760500   17.76621530    4.81677461
      C           8.51253027   16.37714136    5.09525253
      C           9.67549440   15.55799251    4.88220618
      C           9.61312219   14.13676996    5.13165126
      C          10.82530263   13.38239130    5.13596885
      C          11.17789637   12.05923015    5.62429197
      C          12.32847521   11.21772310    5.19669570
      C          12.18919097    9.82834844    5.36850342
      C          13.21671658    8.83904627    4.87710143
      C          14.90701050   10.27681286    6.69541132
      C          16.01916403    9.33416688    6.23808497
      C          17.24435436    9.95813679    5.93528482
      C           7.29705182   15.80246381    5.62224151
      C           7.18594879   14.39864453    5.78738390
      C           8.29841852   13.58136205    5.37613963
      C           8.11727369   12.20676033    5.30333000
      C          10.26422370   11.40273872    6.51393131
      C           9.92738676   10.05757114    6.32684920
      C          11.01246024    9.23534551    5.89532003
      C          10.98255602    7.83564215    6.24123890
      C          12.18944732    7.10107076    6.27592568
      C          13.39561763    7.68006586    5.82890603
      C          14.65055820    7.21661753    6.22999405
      C          15.89341396    7.92432710    6.17230052
      C          17.13210316    7.16984083    6.06317448
      C          18.36054618    7.78141426    5.91559166
      C          18.46448876    9.20597658    5.80142831
      C          19.67290307    9.89645094    5.56224761
      C          19.71393839   11.30227330    5.31177759
      C          20.88449736   12.01954048    4.95815915
      C          20.85615268   13.37997248    4.58517284
      C          19.40743739   18.16116214    3.23580932
      C          19.37480586   19.48772047    2.70686012
      C          18.19164595   20.09226894    2.38474812
      C          20.69731477   16.12678431    3.76865180
      C          20.63232510   17.50236405    3.44789198
      C          22.01857673   14.09156390    4.15018786
      C          21.93941613   15.41464309    3.77615969
      C           6.03568810   13.70361118    6.29681394
      C           6.02365456   12.32711405    6.46756140
      C           7.13611763   11.52073930    6.03720533
      C           7.36503270   10.16807764    6.46772603
      C           8.60014786    9.48796469    6.56815350
      C           8.61126669    8.07852285    6.84866601
      C           9.75390790    7.31763990    6.76485161
      O          11.63187461   13.77215671    2.89526759
      O          12.71356291    8.32297855    3.57183507
      O          15.69742036   17.39968049    5.30692792
      O           9.56676867   12.10561370    7.42300276
      O          10.96989502   21.60052105    2.98287171
      O          16.98215221    5.81024938    6.12534884
      O          21.82003746   18.16829399    3.23507864
      O           6.31567885   16.67837027    5.91342849
      H          15.68637001   21.03951118    1.98365912
      H          15.74108961   16.20417377    2.80906212
      H          15.69789255   17.29822233    1.45030098
      H          15.65404760   15.56249667    6.17879646
      H          13.29435592   21.19131075    2.56591340
      H          12.81753307   13.57847374    4.65886280
      H          13.37612985   12.88566110    2.99537352
      H          14.93497234   12.12931915    3.17491170
      H           8.86003722   20.35556357    4.03542980
      H           7.67668519   18.35873675    4.95120832
      H          14.16401459    9.31519032    4.63429926
      H          15.25633327   10.74815137    7.63117378
      H          13.98388944    9.75201438    6.94212978
      H           8.88642981   11.62679891    4.81146573
      H          12.21247297    6.15574676    6.81977604
      H          14.68797118    6.21250852    6.65243432
      H          19.26453435    7.17921424    5.85898876
      H          20.60840777    9.33347886    5.57875246
      H          21.83433448   11.48902864    4.90718897
      H          20.30294610   20.03098418    2.55143253
      H          18.18337887   21.11516726    2.01833111
      H          22.97496209   13.57173398    4.11043803
      H          22.83418035   15.95063508    3.46804747
      H           5.16999592   14.28691188    6.60600454
      H           5.17578937   11.84942004    6.95887143
      H           6.49465279    9.59169343    6.78844081
      H           7.67025181    7.60812292    7.11566318
      H           9.72054577    6.27293619    7.06924574
      H          11.36521930   12.84077011    2.76470557
      H          12.67017804    7.35043527    3.63574326
      H          14.86544547   17.66118889    5.76434515
      H          10.11074851   12.86699565    7.78065211
      H          10.34933828   22.18596280    3.54618328
      H          17.70565041    5.27575173    5.62874292
      H          21.76022831   19.04103334    3.74279007
      H           5.37233523   16.32003952    5.87752557
      O           0.23944073   27.11272502    6.05615272
      H          -0.58649007   27.57277196    6.33796188
      H           0.77431503   26.75572405    6.81627831
      O          21.71097314    4.51948642    2.35364340
      H          20.85468171    4.62808340    1.85086631
      H          21.97611759    3.57388751    2.20404855
      O          23.68023076   18.95614392    6.01621949
      H          23.57738747   18.66524276    6.97041198
      H          23.65207398   18.09481998    5.54626480
      O           7.47885248    8.74333405    0.21882411
      H           7.95129493    9.09053400   -0.55930211
      H           7.84996000    7.84310589    0.35876653
      O          13.10362152   14.12408386    7.29273946
      H          12.59584170   13.35671610    6.97660265
      H          13.77921694   13.74000415    7.93193745
      O           1.28970595   18.93801138    3.51829075
      H           1.53411698   19.87576098    3.23624177
      H           2.09487625   18.55039193    3.90426777
      O           0.05225664    4.34546911    4.81858553
      H           1.05519984    4.37857830    4.90127071
      H          -0.16164731    3.53072064    4.29923086
      O           0.67363294   20.80472707    6.87773788
      H           0.57814719   21.60101314    6.29006069
      H           0.32460148   20.04325919    6.33483854
      O          21.21405029   11.06918495    1.76445732
      H          20.74171651   10.22300786    1.93080476
      H          20.50287167   11.76280503    1.65071291
      O          17.73164466   21.26487019    5.27109204
      H          17.31483949   20.91942535    4.45806735
      H          18.57423423   21.73922188    4.96301354
      O           9.06113074   16.43326319    8.79810261
      H           9.85304455   16.27671661    8.22519920
      H           8.52085498   15.61476993    8.79089924
      O          19.69393999   14.44631741    7.77358886
      H          20.14487924   13.66886673    7.39702285
      H          20.17358575   14.63036089    8.64681870
      O          24.02311723   22.78184711    7.14371232
      H          23.20220398   22.34241056    7.50720651
      H          24.36122467   22.18651925    6.41690356
      O          14.62335350    8.99924174    1.49312254
      H          13.98855016    8.82209109    2.22108810
      H          15.51115835    8.77870113    1.85724420
      O          23.39871561   13.79078792    9.48850071
      H          23.88426362   14.13548048    8.68898520
      H          23.29858639   12.80257001    9.39045352
      O          24.91235157   21.49875156    4.85487229
      H          25.81507609   21.92516227    4.78448984
      H          24.30404583   22.07728278    4.28674887
      O           7.09728285   21.63904989    5.15764611
      H           7.82234888   22.29263332    5.03269360
      H           7.43277893   20.99570431    5.82500693
      O          18.45024815    4.26927588    4.72104244
      H          19.44896877    4.26222418    4.81052923
      H          18.20370708    4.78203692    3.89726453
      O          17.54975712   12.92132375    8.70159050
      H          17.62569120   12.14568038    8.11729236
      H          18.15270310   13.59262228    8.28217497
      O          16.13937152   22.31702317    7.19866003
      H          16.69748557   22.10835002    6.40168131
      H          15.94399483   23.29579794    7.20204422
      O          11.26640579   22.20343682    6.70801731
      H          10.99663099   21.29925870    7.03352214
      H          12.22275302   22.07474431    6.46171353
      O           4.78582095    0.39380693    1.16215954
      H           3.91032518    0.68714927    0.83903167
      H           4.94058840    0.85540281    2.04133092
      O          26.95473153    4.07252192    1.47000876
      H          27.28185317    5.00230727    1.60564507
      H          27.21992953    3.87828637    0.52935950
      O           8.15976816    3.26453260    4.85411548
      H           7.37995588    3.68518524    4.44406415
      H           8.93246362    3.84457587    4.61838215
      O          22.44350555    7.26108201    2.12780068
      H          22.35160827    6.27992094    2.19073957
      H          21.55980140    7.62794834    2.37481960
      O          13.68346585    7.08584476   -0.27604896
      H          12.74722637    6.91831022   -0.03581575
      H          14.01018671    7.80219119    0.33008720
      O          16.07377899   25.58904078    0.41402831
      H          16.75467463   24.91634361    0.65190833
      H          15.86740989   25.44402749   -0.54328335
      O          10.02099731   20.74496931    0.47960719
      H           9.30311689   21.35395481    0.15837593
      H          10.43499672   21.19649526    1.25248991
      O          28.29479029    6.46704871    1.82823328
      H          27.76548077    6.81780018    2.64821003
      H          28.23497643    7.16812174    1.15986925
      O           6.10478344    4.31633560    3.00970243
      H           5.24387627    4.61012459    2.60553387
      H           6.77798306    4.14036484    2.29030895
      O           4.27918811   14.57161100    9.27380333
      H           5.06501716   14.20716686    8.82939367
      H           4.61720400   15.43980385    9.71987706
      O           6.30097138   18.77960461   -0.42234553
      H           7.07576356   18.79306670    0.22309223
      H           5.79747737   19.62798366   -0.30021555
      O           2.06046783    1.18206717   -0.00166066
      H           1.68746471    1.96622708   -0.49752290
      H           1.30782819    0.56567061    0.11028754
      O           7.67298172   26.82247047    4.11996203
      H           8.39386700   26.80932939    3.44655620
      H           7.08709947   27.57598863    3.87763609
      O          17.50193536    5.30650229    8.70589757
      H          17.30124835    5.35673554    7.73463476
      H          17.82540756    6.20603237    8.90843073
      O          10.92476098    3.94861215    7.68487470
      H           9.98027918    3.64615701    7.68653831
      H          11.42058977    3.13439610    7.89903221
      O          23.78121831   24.91952187    5.46954473
      H          22.93588768   25.44315660    5.34720423
      H          23.70125186   24.26607060    6.21528663
      O           5.21658426    9.27600145    3.46355232
      H           6.03212242    9.78440157    3.25525737
      H           5.55251011    8.35714770    3.59964087
      O          19.41506146    5.12107080    1.06272763
      H          18.98441391    4.58483158    0.36489962
      H          19.68043102    5.95317484    0.53243106
      O           3.36464604   22.68446082   10.61592023
      H           3.86853591   23.47610769   11.00576977
      H           2.72135973   23.08474540   10.00607692
      O           4.91083314   21.11813354    8.94273297
      H           4.39002488   21.62320232    9.61813627
      H           4.22177557   20.65872690    8.36681493
      O           3.74446243   16.12858142    5.57210026
      H           3.57327381   15.36399338    4.98464743
      H           3.14941835   16.01312741    6.35918155
      O          13.82379906   21.47373325    5.99181080
      H          14.60843513   21.76754838    6.53167191
      H          13.96256913   21.91561629    5.11925394
      O          11.02860676   15.84558465    1.07748576
      H          10.18818811   16.22084577    0.72728376
      H          10.83318014   15.45539222    1.95142411
      O           4.12928002    2.46055596    5.65061526
      H           4.32751594    2.64976376    6.59796898
      H           3.38294471    1.80228512    5.53489511
      O          21.14802913    4.33168267    4.99955799
      H          21.52010242    3.42485561    5.18406315
      H          21.39964362    4.49458593    4.04177698
      O          14.72916276   13.08686440   -0.45830934
      H          14.54490167   13.82564404    0.19872500
      H          15.70688736   13.07676585   -0.59512433
      O          25.99171153    2.23011712    3.35349932
      H          26.25775935    1.35062930    2.96521571
      H          25.96903447    2.85846176    2.59660947
      O          26.04063013   19.88321007    8.81580764
      H          26.57923974   20.29139495    8.08224601
      H          26.18866301   18.90593240    8.79525681
      O           6.06980663   15.02876433    2.81110264
      H           5.27476415   14.76345022    3.33249835
      H           6.71719762   15.33260363    3.47708844
      O          10.12269164    9.27863216    2.70975218
      H          10.39968529    9.22428801    1.74285520
      H          10.97921341    9.17431241    3.18464789
      O          11.19824728    9.22298570    0.29272789
      H          11.71432069   10.08194652    0.25667494
      H          10.96851038    8.98425677   -0.61889361
      O          23.45321512   20.30107400    0.34485465
      H          23.73189972   20.22948303    1.28798541
      H          24.97348628   23.24861303   -1.02763098
      O          24.86063870   16.40033894    5.54581060
      H          25.56595693   17.08334064    5.66118185
      H          25.19194840   15.85773690    4.77664707
      O           4.82639604   22.33185996    6.34315413
      H           5.68553368   22.19026351    5.83022135
      H           5.05810612   22.15436149    7.28285929
      O           0.96328590   13.44029469    4.48079012
      H           1.93081723   13.62419113    4.47797865
      H           0.71323003   13.21659477    5.41931230
      O           1.58475018   21.48093878    2.77516237
      H           2.33871495   21.87120453    2.25928409
      H           0.79820628   21.53257362    2.14763125
      O          11.26238492    5.70429353    0.24631765
      H          11.19102430    5.06705713   -0.51230676
      H          10.32697027    5.97854900    0.42039035
      O          25.71167090   13.49568634   10.91055757
      H          25.75327218   14.09647147   11.70529968
      H          24.84547844   13.69956936   10.45659136
      O           6.02191630   24.70233098    4.21883026
      H           6.66809433   25.46750136    4.20227265
      H           5.40351686   24.88054389    4.96177642
      O          10.00829730   24.18749093    8.20708133
      H           9.21952661   23.64619174    8.43406167
      H          10.59940451   23.54070551    7.74668360
      O          26.99880090   12.78550232    6.96768705
      H          26.66133401   11.87571068    7.00429730
      H          27.43412412   12.96958710    7.87334731
      O          19.85524009    7.14134885   -0.54032284
      H          20.59011607    7.79213986   -0.38055490
      H          20.17234040    6.72396415   -1.38258790
      O          26.26829530   17.54052133    2.29112501
      H          26.15507542   17.38308675    1.30609104
      H          24.79927051   20.29384041    3.64304616
      O          23.22874035   11.02076266    0.10167577
      H          22.46282025   11.04077125    0.77390801
      H          24.03264318   10.81072289    0.62033618
      O          26.25790117   25.14953599    4.49155983
      H          26.69289518   25.80025329    5.10724309
      H          25.31831771   25.09268973    4.83328595
      O           7.59159704   10.39469839    2.36182819
      H           8.50744163   10.23309124    2.68877420
      H           7.53023438    9.79558660    1.56167684
      O          13.33578135   17.49635393   -0.21659254
      H          12.60030174   17.07751373   -0.74923119
      H          12.89371980   17.89645482    0.55329556
      O          10.70503992   19.70562481    7.64586534
      H          11.54793171   19.25038574    7.41696611
      H          10.72197013   19.95581533    8.60624700
      O           0.34390468   22.66963411    4.89219327
      H           0.92370233   22.39206640    4.13300380
      H           0.09478176   23.62258969    4.73705769
      O           2.47812346    5.47264096    7.56555080
      H           2.50630119    6.45777153    7.60842434
      H           2.57821934    5.28406698    6.58533180
      O          21.50740663   26.19148656    4.81575800
      H          20.85782226   25.75140004    5.43255603
      H          21.61855308   27.14169920    5.08693250
      O          19.12892675   19.14698227    6.27512256
      H          18.50275579   19.84365202    5.92549995
      H          18.76052365   18.29356618    5.98471822
      O          10.29690499    4.94829636    4.39812276
      H           9.84973827    5.81017510    4.12245127
      H          10.68321797    5.09228276    5.28104167
      O          12.14498829    4.27973050    2.44331123
      H          11.55652821    4.57968839    3.18179152
      H          11.90231246    4.85910892    1.66649659
      O          15.11195817    4.06444129    2.38573987
      H          14.18547662    4.17139069    2.69608057
      H          15.02143421    4.23794614    1.37308050
      O          19.84497996   19.88672665    8.78791299
      H          19.57218333   19.49978370    7.91444832
      H          20.60387703   20.50095205    8.56749280
      O          15.46016204   24.97078547    7.34933136
      H          16.11024699   25.44253905    6.75803483
      H          14.57210286   25.12893479    6.95293905
      O          11.60189075   16.27468561    7.66908461
      H          11.71986704   16.74803201    6.82526210
      H          12.13043135   15.41917991    7.55337906
      O          13.50500892   24.68961864    1.32444309
      H          13.60875144   24.20468315    2.17452373
      H          14.40252377   25.02222989    1.08414759
      O          11.20149082   25.76538536    0.44061496
      H          10.76961463   25.09493559   -0.17069722
      H          12.07346439   25.36971033    0.74102433
      O          17.32429561    5.64020303    2.72467321
      H          16.46761411    5.13845314    2.58589228
      H          17.95673007    5.43474681    1.98245811
      O          10.34525393    2.35265599    1.66983716
      H          11.07134947    2.98223004    1.95612818
      H          10.60265255    2.01983242    0.76395623
      O          13.38425421   18.73405942    6.76264134
      H          13.62254187   19.64573623    6.45869222
      H          13.69678180   18.63537918    7.68805793
      O          21.27980895   17.87330420    0.44950641
      H          21.57276302   18.18853638    1.33290709
      H          20.66977529   18.57563058    0.08908138
      O          13.19405124   25.48676008    5.59743742
      H          13.49462573   26.30508179    5.16666835
      H          12.19705131   25.52948976    5.51506159
      O          22.21825461    1.80373122    5.06166240
      H          23.14246928    1.72159009    5.41727163
      H          22.31480027    1.79613211    4.06223116
      O           8.03601289   22.15585227    8.81435279
      H           7.14464616   22.21777379    9.20186127
      H           7.96111856   21.38999840    8.16676028
      O           0.94351455   13.55978904    9.27898050
      H           0.14515822   13.63947109    9.87451461
      H           1.19566454   14.46528617    8.99477619
      O          20.98791730   15.04354640    0.41453041
      H          21.06117098   16.02834054    0.48272696
      H          21.90602576   14.67662560    0.27990635
      O          17.39367688   25.90696840    5.73439493
      H          17.14715487   25.40821479    4.87824900
      H          17.42926114   26.84811999    5.48619074
      O           6.41387634    2.02450164   -0.36975137
      H           5.63712447    2.58002052   -0.63193401
      H           5.99322435    1.27682076    0.13186306
      O           2.24334048    1.00180937    4.54299887
      H           1.39113466    0.83809322    5.02912584
      H           2.05726197    1.61450045    3.78301364
      O           5.48090214    7.18571754    6.59022904
      H           5.80672552    6.52647692    7.24249842
      H           4.57148512    7.48158647    6.84333444
      O           6.41626636   12.63251107    1.53977124
      H           6.94950207   11.88020673    1.93943430
      H           6.45429018   13.41906606    2.14404129
      O          16.67886843    2.19605162    3.71269867
      H          17.35963133    2.79079150    4.10343764
      H          16.05676553    2.80435089    3.22844899
      O          14.91007652    4.71865109   -0.10809228
      H          15.83838925    4.92283451   -0.37870551
      H          14.44982668    5.61472453   -0.13456181
      O          21.97339048   15.91614479    6.91168594
      H          22.21330317   15.65641803    6.00346643
      H          21.07432082   15.54985232    7.07191826
      O          26.89177634    7.08797957    3.88676485
      H          26.66326375    6.19508281    4.21948201
      H          26.03568963    7.58191217    3.69134861
      O           8.49183832   18.45340769    1.01400223
      H           9.09304191   19.23502965    0.94125322
      H           8.79072497   17.81515909    0.32540289
      O           9.62348306   22.97697718    4.73043211
      H          10.21431468   22.65381788    5.47739237
      H           9.82903325   23.94618781    4.70409848
      O          10.91896228    1.17419927    8.85658579
      H          10.09478920    1.03568598    8.36095391
      H          11.14860784    0.25957856    9.21588832
      O          25.77952761   17.15739552    9.24872959
      H          25.91782873   16.28448679    8.80751922
      H          24.81238315   17.33654090    9.01299639
      O          25.77008441    3.93796716    7.02783651
      H          26.26711008    4.21356821    6.17567725
      H          25.23482632    4.69689433    7.31188174
      O          10.05901637   -0.19240540    2.67140204
      H          10.22564105    0.76705756    2.46675933
      H          10.40475125   -0.68280246    1.86821616
      O           6.80062322    5.38953791   -1.37130537
      H           7.43670581    4.67592925   -1.68212711
      H           7.20612413    5.78923740   -0.57297432
      O          20.28875968   26.85271093    2.29119219
      H          20.57026876   26.45625439    3.14959995
      H          19.30477100   26.93535246    2.31935151
      O          22.33114228    8.31790590   -0.48130568
      H          22.54370666    7.92793703    0.40144785
      H          22.63407310    9.25541989   -0.42091382
      O           2.69443145    4.61360711    5.06156453
      H           3.04674514    4.96673692    4.19906969
      H           3.26067946    3.79868647    5.23839978
      O           4.50289312   24.76782519    2.11794043
      H           4.68173426   25.62498638    1.66096803
      H           5.16249007   24.71320034    2.90385641
      O           0.92774126    3.47970360    8.58737140
      H           1.47803039    4.25715076    8.28653101
      H           0.11012582    3.54713242    8.01930725
      O           8.25201724    3.26378791    7.45739890
      H           7.70629655    2.57298546    7.89653072
      H           8.13614532    3.17424389    6.44976055
      O           3.65997368   12.55201636    1.64995602
      H           4.63507146   12.36064007    1.56925090
      H           3.52347981   13.21772018    0.93355567
      O          23.92505369   26.99559068    1.19915259
      H          24.14147269   27.10952848    0.25888442
      H          24.81629490   26.86561371    1.65559201
      O           2.30503525   15.75340642    7.93759123
      H           2.27823128   16.65853830    8.29445960
      H           3.08594719   15.31478006    8.40031096
      O          25.19861048   14.84262513    7.72183397
      H          24.99439460   15.38940272    6.90794051
      H          25.76988429   14.10854077    7.39240704
      O          26.47804296   18.73010697    5.62119512
      H          26.94535984   18.83404138    4.75345134
      H          25.57964532   19.14008557    5.56982773
      O           3.76734872   13.74992466    3.98606245
      H           3.66759903   13.29773583    3.07315567
      H           4.23696705   13.09996775    4.54496889
      O          19.33549448   12.99667092    1.49169491
      H          19.84012328   13.81091066    1.26640489
      H          18.69188794   12.87941669    0.76052324
      O          20.44742830   23.17362007    2.00155291
      H          21.30535507   23.58778326    1.76080359
      H          20.49517708   22.96003240    2.96619584
      O          16.58836694   24.79782980    3.53319886
      H          17.10484628   24.18601008    2.93041641
      H          16.71735010   25.67843580    3.06288664
      O           8.94367749    6.96914810    3.34316656
      H           9.34890830    7.87739759    3.18655763
      H           8.04264450    7.07974601    3.77420203
      O          14.15641276   23.46093806    3.88800681
      H          15.04921889   23.87331027    3.76799617
      H          13.70996197   24.11351171    4.48323495
      O          -2.24429338   19.89628305    2.72637524
      H           0.13764022   17.98168909    2.44944385
      H          -1.80635551   19.00937817    2.71389749
      O           8.55618346    6.14475429    0.83533871
      H           8.65010974    6.45403483    1.79249771
      H           8.36710027    5.16480111    0.92509696
      O          26.39158729   21.51977536    1.26999589
      H          26.43403599   20.85928327    0.51431393
      H          25.76431014   21.04668554    1.88933853
      O          10.53508173   25.59992380    4.98829601
      H          10.42386616   26.11845520    4.12760714
      H           9.86777583   25.96304518    5.59717592
      O          24.88464889    1.63229195    5.85452641
      H          25.19431657    1.85161993    4.93937095
      H          25.05296224    2.46842664    6.35992240
      O           3.16375852    9.89265530    5.09440791
      H           3.96171333    9.68060769    4.52460674
      H           2.45640979   10.11601438    4.44659904
      O           3.72358231   24.76089684    6.03493837
      H           3.17425862   24.79717633    5.19281227
      H           4.03331557   23.81582896    6.16760925
      O          17.89354900   23.67483275    1.54077387
      H          18.88031796   23.64643599    1.73832891
      H          17.78639533   22.92724937    0.89663928
      O          25.29505730   23.62858915    9.42704191
      H          24.28447968   20.18361967    9.41892646